(declare-const X String)
; /\x2eexecCommand\s*\x28\s*[\x22\x27]\s*undo\s*[\x22\x27].*?\x2eexecCommand\s*\x28\s*[\x22\x27]\s*redo\s*[\x22\x27].*?\x2eexecCommand\s*\x28\s*[\x22\x27]\s*undo\s*[\x22\x27]/smi
(assert (str.in_re X (re.++ (str.to_re "/.execCommand") (re.* (re.union (str.to_re " ") (str.to_re "\u{9}") (str.to_re "\u{a}") (str.to_re "\u{c}") (str.to_re "\u{d}"))) (str.to_re "(") (re.* (re.union (str.to_re " ") (str.to_re "\u{9}") (str.to_re "\u{a}") (str.to_re "\u{c}") (str.to_re "\u{d}"))) (re.union (str.to_re "\u{22}") (str.to_re "'")) (re.* (re.union (str.to_re " ") (str.to_re "\u{9}") (str.to_re "\u{a}") (str.to_re "\u{c}") (str.to_re "\u{d}"))) (str.to_re "undo") (re.* (re.union (str.to_re " ") (str.to_re "\u{9}") (str.to_re "\u{a}") (str.to_re "\u{c}") (str.to_re "\u{d}"))) (re.union (str.to_re "\u{22}") (str.to_re "'")) (re.* re.allchar) (str.to_re ".execCommand") (re.* (re.union (str.to_re " ") (str.to_re "\u{9}") (str.to_re "\u{a}") (str.to_re "\u{c}") (str.to_re "\u{d}"))) (str.to_re "(") (re.* (re.union (str.to_re " ") (str.to_re "\u{9}") (str.to_re "\u{a}") (str.to_re "\u{c}") (str.to_re "\u{d}"))) (re.union (str.to_re "\u{22}") (str.to_re "'")) (re.* (re.union (str.to_re " ") (str.to_re "\u{9}") (str.to_re "\u{a}") (str.to_re "\u{c}") (str.to_re "\u{d}"))) (str.to_re "redo") (re.* (re.union (str.to_re " ") (str.to_re "\u{9}") (str.to_re "\u{a}") (str.to_re "\u{c}") (str.to_re "\u{d}"))) (re.union (str.to_re "\u{22}") (str.to_re "'")) (re.* re.allchar) (str.to_re ".execCommand") (re.* (re.union (str.to_re " ") (str.to_re "\u{9}") (str.to_re "\u{a}") (str.to_re "\u{c}") (str.to_re "\u{d}"))) (str.to_re "(") (re.* (re.union (str.to_re " ") (str.to_re "\u{9}") (str.to_re "\u{a}") (str.to_re "\u{c}") (str.to_re "\u{d}"))) (re.union (str.to_re "\u{22}") (str.to_re "'")) (re.* (re.union (str.to_re " ") (str.to_re "\u{9}") (str.to_re "\u{a}") (str.to_re "\u{c}") (str.to_re "\u{d}"))) (str.to_re "undo") (re.* (re.union (str.to_re " ") (str.to_re "\u{9}") (str.to_re "\u{a}") (str.to_re "\u{c}") (str.to_re "\u{d}"))) (re.union (str.to_re "\u{22}") (str.to_re "'")) (str.to_re "/smi\u{a}"))))
; ^(-?)(,?)(\d{1,3}(\.\d{3})*|(\d+))(\,\d{2})?$
(assert (str.in_re X (re.++ (re.opt (str.to_re "-")) (re.opt (str.to_re ",")) (re.union (re.++ ((_ re.loop 1 3) (re.range "0" "9")) (re.* (re.++ (str.to_re ".") ((_ re.loop 3 3) (re.range "0" "9"))))) (re.+ (re.range "0" "9"))) (re.opt (re.++ (str.to_re ",") ((_ re.loop 2 2) (re.range "0" "9")))) (str.to_re "\u{a}"))))
(check-sat)

(exit)
